c "822352.clq"
p edge 100 1344
e 1 17
e 1 18
e 1 19
e 1 26
e 1 27
e 1 32
e 1 34
e 1 37
e 1 50
e 1 53
e 1 55
e 1 56
e 1 77
e 1 89
e 1 98
e 2 17
e 2 18
e 2 19
e 2 20
e 2 21
e 2 23
e 2 25
e 2 28
e 2 36
e 2 38
e 2 53
e 2 61
e 2 63
e 2 67
e 2 68
e 2 70
e 2 77
e 2 80
e 2 83
e 2 96
e 3 17
e 3 18
e 3 19
e 3 20
e 3 23
e 3 24
e 3 28
e 3 34
e 3 45
e 3 46
e 3 53
e 3 61
e 3 64
e 3 72
e 3 86
e 4 17
e 4 18
e 4 19
e 4 20
e 4 21
e 4 24
e 4 25
e 4 26
e 4 30
e 4 31
e 4 35
e 4 45
e 4 53
e 4 55
e 4 59
e 4 62
e 4 70
e 4 87
e 4 91
e 5 17
e 5 18
e 5 21
e 5 24
e 5 25
e 5 31
e 5 47
e 5 67
e 5 72
e 5 82
e 5 87
e 5 91
e 6 17
e 6 18
e 6 19
e 6 20
e 6 21
e 6 22
e 6 23
e 6 31
e 6 32
e 6 33
e 6 37
e 6 39
e 6 41
e 6 44
e 6 47
e 6 50
e 6 65
e 6 75
e 6 78
e 6 80
e 6 82
e 6 92
e 6 94
e 6 96
e 6 97
e 7 17
e 7 18
e 7 20
e 7 21
e 7 22
e 7 23
e 7 28
e 7 29
e 7 30
e 7 31
e 7 34
e 7 37
e 7 40
e 7 41
e 7 48
e 7 51
e 7 54
e 7 59
e 7 70
e 7 78
e 7 85
e 8 17
e 8 18
e 8 19
e 8 20
e 8 21
e 8 22
e 8 23
e 8 26
e 8 28
e 8 30
e 8 34
e 8 36
e 8 42
e 8 43
e 8 45
e 8 47
e 8 48
e 8 56
e 8 62
e 8 63
e 8 68
e 8 69
e 8 74
e 8 75
e 8 77
e 8 78
e 8 95
e 8 98
e 9 17
e 9 18
e 9 19
e 9 20
e 9 22
e 9 23
e 9 25
e 9 26
e 9 27
e 9 32
e 9 33
e 9 36
e 9 38
e 9 45
e 9 53
e 9 59
e 10 17
e 10 19
e 10 20
e 10 21
e 10 22
e 10 23
e 10 24
e 10 25
e 10 27
e 10 28
e 10 29
e 10 31
e 10 32
e 10 35
e 10 43
e 10 44
e 10 46
e 10 47
e 10 50
e 10 51
e 10 54
e 10 56
e 10 65
e 10 72
e 10 77
e 10 78
e 10 79
e 10 80
e 10 82
e 10 84
e 10 93
e 10 96
e 10 99
e 11 17
e 11 18
e 11 19
e 11 20
e 11 21
e 11 22
e 11 25
e 11 26
e 11 28
e 11 29
e 11 40
e 11 41
e 11 42
e 11 43
e 11 47
e 11 49
e 11 52
e 11 54
e 11 57
e 11 58
e 11 60
e 11 62
e 11 63
e 11 65
e 11 68
e 11 72
e 11 75
e 11 80
e 11 85
e 11 86
e 11 91
e 11 100
e 12 17
e 12 18
e 12 19
e 12 21
e 12 22
e 12 24
e 12 25
e 12 27
e 12 29
e 12 33
e 12 38
e 12 44
e 12 46
e 12 56
e 12 61
e 12 67
e 12 84
e 12 93
e 13 17
e 13 18
e 13 19
e 13 20
e 13 21
e 13 22
e 13 23
e 13 24
e 13 26
e 13 27
e 13 28
e 13 29
e 13 30
e 13 32
e 13 35
e 13 36
e 13 37
e 13 41
e 13 46
e 13 47
e 13 49
e 13 51
e 13 52
e 13 55
e 13 64
e 13 73
e 13 74
e 13 83
e 13 85
e 13 87
e 13 91
e 13 99
e 14 17
e 14 18
e 14 19
e 14 20
e 14 22
e 14 24
e 14 25
e 14 29
e 14 31
e 14 32
e 14 38
e 14 40
e 14 46
e 14 49
e 14 51
e 14 55
e 14 59
e 14 67
e 14 98
e 15 17
e 15 18
e 15 19
e 15 20
e 15 21
e 15 22
e 15 23
e 15 24
e 15 26
e 15 27
e 15 28
e 15 31
e 15 33
e 15 34
e 15 35
e 15 40
e 15 42
e 15 44
e 15 48
e 15 49
e 15 50
e 15 53
e 15 56
e 15 59
e 15 68
e 15 69
e 15 73
e 15 75
e 15 76
e 15 83
e 15 84
e 15 87
e 15 89
e 15 92
e 16 17
e 16 18
e 16 19
e 16 20
e 16 21
e 16 22
e 16 23
e 16 24
e 16 27
e 16 34
e 16 35
e 16 37
e 16 44
e 16 48
e 16 51
e 16 55
e 16 64
e 16 67
e 16 68
e 16 71
e 16 77
e 16 81
e 16 89
e 16 97
e 16 98
e 16 99
e 16 100
e 17 18
e 17 19
e 17 20
e 17 21
e 17 22
e 17 23
e 17 24
e 17 25
e 17 26
e 17 28
e 17 29
e 17 30
e 17 31
e 17 32
e 17 33
e 17 35
e 17 36
e 17 37
e 17 38
e 17 40
e 17 42
e 17 43
e 17 46
e 17 47
e 17 50
e 17 51
e 17 55
e 17 56
e 17 57
e 17 59
e 17 60
e 17 61
e 17 62
e 17 63
e 17 66
e 17 69
e 17 70
e 17 71
e 17 73
e 17 74
e 17 76
e 17 81
e 17 84
e 17 86
e 17 87
e 17 90
e 17 91
e 18 19
e 18 20
e 18 21
e 18 22
e 18 23
e 18 24
e 18 25
e 18 26
e 18 27
e 18 29
e 18 30
e 18 31
e 18 33
e 18 34
e 18 35
e 18 36
e 18 39
e 18 40
e 18 41
e 18 43
e 18 45
e 18 47
e 18 48
e 18 51
e 18 53
e 18 57
e 18 58
e 18 62
e 18 64
e 18 65
e 18 69
e 18 72
e 18 74
e 18 80
e 18 81
e 18 82
e 18 91
e 18 95
e 18 99
e 19 20
e 19 21
e 19 22
e 19 23
e 19 24
e 19 25
e 19 26
e 19 27
e 19 28
e 19 30
e 19 32
e 19 33
e 19 34
e 19 35
e 19 37
e 19 40
e 19 42
e 19 43
e 19 46
e 19 47
e 19 48
e 19 49
e 19 50
e 19 57
e 19 58
e 19 59
e 19 61
e 19 62
e 19 64
e 19 70
e 19 74
e 19 75
e 19 78
e 19 79
e 19 82
e 19 84
e 19 86
e 19 87
e 19 91
e 19 93
e 19 98
e 19 99
e 19 100
e 20 21
e 20 22
e 20 23
e 20 24
e 20 25
e 20 26
e 20 27
e 20 29
e 20 30
e 20 31
e 20 33
e 20 34
e 20 36
e 20 37
e 20 38
e 20 39
e 20 40
e 20 44
e 20 45
e 20 46
e 20 47
e 20 48
e 20 49
e 20 50
e 20 54
e 20 55
e 20 57
e 20 59
e 20 61
e 20 66
e 20 73
e 20 83
e 20 87
e 20 94
e 20 96
e 20 99
e 21 22
e 21 23
e 21 24
e 21 25
e 21 26
e 21 27
e 21 28
e 21 29
e 21 30
e 21 31
e 21 32
e 21 33
e 21 34
e 21 35
e 21 36
e 21 37
e 21 38
e 21 39
e 21 40
e 21 42
e 21 43
e 21 45
e 21 47
e 21 49
e 21 51
e 21 56
e 21 63
e 21 64
e 21 65
e 21 66
e 21 73
e 21 74
e 21 76
e 21 77
e 21 83
e 21 84
e 21 85
e 21 88
e 21 89
e 21 92
e 21 97
e 21 99
e 22 23
e 22 24
e 22 25
e 22 26
e 22 27
e 22 28
e 22 29
e 22 30
e 22 31
e 22 32
e 22 33
e 22 34
e 22 36
e 22 37
e 22 40
e 22 41
e 22 43
e 22 48
e 22 50
e 22 52
e 22 57
e 22 59
e 22 61
e 22 64
e 22 65
e 22 66
e 22 72
e 22 74
e 22 77
e 22 80
e 22 83
e 22 88
e 22 91
e 22 94
e 23 24
e 23 25
e 23 26
e 23 27
e 23 28
e 23 29
e 23 30
e 23 32
e 23 33
e 23 34
e 23 36
e 23 37
e 23 39
e 23 41
e 23 44
e 23 46
e 23 49
e 23 51
e 23 54
e 23 55
e 23 58
e 23 60
e 23 62
e 23 63
e 23 64
e 23 67
e 23 70
e 23 71
e 23 72
e 23 74
e 23 76
e 23 81
e 23 92
e 23 94
e 23 96
e 23 97
e 23 100
e 24 25
e 24 26
e 24 27
e 24 28
e 24 29
e 24 30
e 24 32
e 24 33
e 24 34
e 24 38
e 24 39
e 24 41
e 24 42
e 24 43
e 24 44
e 24 48
e 24 59
e 24 62
e 24 64
e 24 70
e 24 71
e 24 73
e 24 84
e 24 90
e 24 91
e 24 94
e 24 98
e 24 100
e 25 26
e 25 27
e 25 28
e 25 29
e 25 30
e 25 31
e 25 32
e 25 33
e 25 34
e 25 35
e 25 37
e 25 38
e 25 39
e 25 40
e 25 41
e 25 43
e 25 48
e 25 49
e 25 50
e 25 53
e 25 54
e 25 55
e 25 56
e 25 57
e 25 59
e 25 61
e 25 63
e 25 66
e 25 68
e 25 69
e 25 72
e 25 73
e 25 75
e 25 76
e 25 78
e 25 81
e 25 83
e 25 84
e 25 86
e 25 90
e 25 92
e 25 94
e 25 97
e 25 100
e 26 27
e 26 29
e 26 30
e 26 31
e 26 32
e 26 35
e 26 36
e 26 39
e 26 41
e 26 42
e 26 43
e 26 47
e 26 48
e 26 52
e 26 54
e 26 58
e 26 61
e 26 67
e 26 69
e 26 71
e 26 73
e 26 74
e 26 75
e 26 77
e 26 78
e 26 86
e 26 87
e 26 88
e 26 92
e 26 96
e 26 98
e 27 28
e 27 30
e 27 32
e 27 35
e 27 36
e 27 37
e 27 38
e 27 39
e 27 40
e 27 41
e 27 44
e 27 48
e 27 50
e 27 53
e 27 54
e 27 56
e 27 58
e 27 60
e 27 63
e 27 65
e 27 67
e 27 68
e 27 69
e 27 73
e 27 74
e 27 76
e 27 77
e 27 84
e 27 90
e 27 92
e 28 29
e 28 31
e 28 32
e 28 35
e 28 36
e 28 38
e 28 39
e 28 41
e 28 42
e 28 44
e 28 45
e 28 46
e 28 48
e 28 51
e 28 52
e 28 54
e 28 59
e 28 63
e 28 66
e 28 70
e 28 80
e 28 81
e 28 82
e 28 92
e 28 97
e 29 30
e 29 31
e 29 33
e 29 35
e 29 38
e 29 39
e 29 40
e 29 41
e 29 47
e 29 50
e 29 52
e 29 55
e 29 56
e 29 60
e 29 61
e 29 62
e 29 64
e 29 66
e 29 72
e 29 73
e 29 80
e 29 84
e 29 90
e 29 91
e 29 93
e 29 100
e 30 33
e 30 35
e 30 38
e 30 40
e 30 41
e 30 42
e 30 44
e 30 45
e 30 49
e 30 52
e 30 56
e 30 58
e 30 60
e 30 61
e 30 63
e 30 72
e 30 76
e 30 86
e 30 88
e 30 96
e 30 99
e 31 33
e 31 34
e 31 35
e 31 36
e 31 37
e 31 38
e 31 39
e 31 40
e 31 44
e 31 45
e 31 46
e 31 49
e 31 52
e 31 54
e 31 55
e 31 60
e 31 65
e 31 67
e 31 68
e 31 71
e 31 82
e 31 85
e 31 86
e 31 89
e 31 93
e 31 94
e 31 97
e 31 99
e 32 34
e 32 36
e 32 37
e 32 39
e 32 42
e 32 44
e 32 45
e 32 46
e 32 49
e 32 51
e 32 52
e 32 53
e 32 57
e 32 63
e 32 64
e 32 66
e 32 69
e 32 71
e 32 85
e 32 88
e 32 100
e 33 39
e 33 41
e 33 42
e 33 43
e 33 46
e 33 47
e 33 50
e 33 53
e 33 56
e 33 58
e 33 66
e 33 70
e 33 74
e 33 77
e 33 79
e 33 81
e 33 85
e 33 86
e 33 89
e 33 91
e 33 97
e 34 38
e 34 39
e 34 42
e 34 44
e 34 51
e 34 57
e 34 58
e 34 80
e 34 83
e 34 87
e 34 88
e 34 95
e 35 36
e 35 38
e 35 42
e 35 46
e 35 48
e 35 52
e 35 53
e 35 55
e 35 57
e 35 58
e 35 61
e 35 62
e 35 65
e 35 67
e 35 73
e 35 79
e 35 86
e 35 90
e 35 99
e 36 37
e 36 42
e 36 45
e 36 48
e 36 49
e 36 51
e 36 52
e 36 54
e 36 57
e 36 58
e 36 60
e 36 61
e 36 62
e 36 66
e 36 69
e 36 71
e 36 72
e 36 73
e 36 75
e 36 77
e 36 79
e 36 83
e 36 87
e 36 89
e 36 96
e 36 99
e 37 43
e 37 45
e 37 50
e 37 51
e 37 55
e 37 61
e 37 67
e 37 71
e 37 75
e 37 85
e 37 91
e 37 93
e 37 94
e 37 95
e 38 39
e 38 40
e 38 41
e 38 42
e 38 43
e 38 44
e 38 45
e 38 46
e 38 50
e 38 53
e 38 58
e 38 63
e 38 64
e 38 67
e 38 69
e 38 73
e 38 75
e 38 83
e 38 85
e 38 87
e 38 89
e 38 90
e 38 95
e 38 98
e 38 99
e 38 100
e 39 44
e 39 52
e 39 55
e 39 60
e 39 64
e 39 67
e 39 75
e 39 78
e 39 88
e 39 93
e 39 95
e 39 100
e 40 45
e 40 47
e 40 52
e 40 54
e 40 57
e 40 60
e 40 63
e 40 68
e 40 71
e 40 75
e 40 83
e 40 95
e 40 98
e 41 43
e 41 52
e 41 55
e 41 56
e 41 68
e 41 71
e 41 81
e 41 86
e 41 88
e 41 92
e 42 43
e 42 57
e 42 58
e 42 62
e 42 71
e 42 72
e 42 100
e 43 49
e 43 51
e 43 60
e 43 64
e 43 76
e 43 77
e 43 79
e 43 82
e 43 85
e 43 86
e 43 90
e 43 92
e 43 94
e 44 45
e 44 46
e 44 49
e 44 60
e 44 67
e 44 75
e 44 76
e 44 91
e 45 47
e 45 49
e 45 50
e 45 59
e 45 65
e 45 66
e 45 75
e 45 76
e 45 79
e 45 81
e 45 83
e 45 87
e 45 93
e 46 55
e 46 65
e 46 66
e 46 68
e 46 79
e 46 80
e 46 82
e 46 86
e 46 95
e 46 96
e 47 48
e 47 50
e 47 53
e 47 54
e 47 57
e 47 65
e 47 72
e 47 85
e 48 52
e 48 54
e 48 63
e 48 68
e 48 69
e 48 73
e 48 76
e 48 79
e 48 88
e 48 97
e 48 100
e 49 52
e 49 58
e 49 59
e 49 62
e 49 63
e 49 67
e 49 70
e 49 80
e 49 82
e 49 84
e 49 90
e 49 95
e 49 96
e 49 100
e 50 51
e 50 53
e 50 56
e 50 57
e 50 60
e 50 61
e 50 69
e 50 70
e 50 77
e 50 87
e 50 91
e 50 93
e 51 53
e 51 54
e 51 58
e 51 66
e 51 68
e 51 74
e 51 77
e 51 78
e 51 80
e 51 81
e 51 85
e 51 94
e 52 68
e 52 71
e 52 78
e 52 80
e 52 93
e 53 54
e 53 56
e 53 59
e 53 69
e 53 71
e 53 79
e 53 99
e 54 58
e 54 60
e 54 71
e 54 74
e 54 78
e 54 79
e 54 86
e 55 56
e 55 60
e 55 64
e 55 65
e 55 66
e 55 79
e 55 81
e 55 82
e 55 84
e 55 90
e 56 57
e 56 62
e 56 67
e 56 70
e 56 76
e 56 88
e 56 95
e 56 99
e 57 63
e 57 81
e 57 89
e 57 99
e 58 59
e 58 64
e 58 65
e 58 69
e 58 78
e 58 79
e 58 85
e 58 87
e 58 90
e 58 93
e 59 60
e 59 66
e 59 70
e 59 73
e 59 75
e 59 88
e 59 95
e 59 97
e 60 61
e 60 62
e 60 69
e 60 81
e 60 90
e 60 91
e 61 62
e 61 65
e 61 88
e 61 92
e 61 96
e 61 97
e 62 65
e 62 68
e 62 70
e 62 76
e 62 79
e 62 88
e 62 90
e 62 99
e 63 66
e 63 72
e 63 78
e 63 80
e 63 84
e 63 93
e 63 96
e 64 68
e 64 72
e 64 74
e 64 82
e 65 69
e 65 81
e 65 92
e 65 93
e 65 94
e 66 70
e 66 72
e 66 76
e 66 83
e 66 89
e 67 73
e 67 85
e 67 87
e 67 96
e 67 97
e 68 71
e 68 77
e 68 88
e 68 93
e 68 97
e 69 70
e 69 76
e 69 78
e 69 82
e 69 84
e 69 89
e 69 93
e 70 74
e 70 77
e 70 79
e 70 82
e 71 75
e 71 78
e 71 83
e 72 76
e 72 78
e 72 81
e 72 82
e 72 90
e 72 92
e 72 94
e 72 95
e 72 98
e 72 100
e 73 74
e 73 79
e 74 82
e 74 87
e 74 89
e 74 92
e 75 80
e 75 94
e 76 81
e 76 84
e 77 89
e 78 80
e 78 83
e 78 89
e 78 95
e 78 98
e 78 100
e 79 83
e 79 89
e 79 98
e 80 96
e 81 94
e 81 97
e 81 98
e 82 85
e 82 89
e 82 92
e 82 95
e 82 98
e 82 100
e 83 84
e 83 86
e 83 88
e 83 91
e 83 93
e 83 94
e 84 85
e 84 86
e 84 88
e 84 96
e 86 90
e 86 94
e 87 96
e 87 97
e 89 90
e 89 95
e 90 92
e 91 95
e 92 97
e 92 98
e 95 98
